Route #1: 33 29 12 9 27 43 3 44 14 18 41 40 6 15 42 28 38 32 13
Route #2: 21 16 31 47 22 24 46 2 10 48 25 26 51 23 50 36 45
Route #3: 11 37 30 8 7 5 39 35 19 17
Route #4: 34 49 4 20 1
Route #5: 
Route #6: 
Route #7: 
cost 1207.419774847253
